NAME : netgen20-5-15
COMMENT : Generated using the function generateClusteredNetwork from the R-package netgen (Bossek,2015) - Number of clusters: 5
TYPE : TSP
DIMENSION : 20
EDGE_WEIGHT_TYPE : EUC_2D
NODE_COORD_SECTION
1 1.3749741083 45.8871412491
2 7.4380791865 48.0456418218
3 6.3837869911 38.3297210814
4 5.8699845246 47.8738753053
5 66.9297249532 42.0616305012
6 90.9015139109 46.8975515763
7 85.8678411993 34.8209183102
8 97.8471177844 42.2644981269
9 59.7385207539 67.2409321703
10 58.3859055767 71.9873460825
11 53.7731998204 71.5991444572
12 47.4961870278 72.9416427083
13 39.5994422142 95.0588388535
14 40.1859602949 95.511023659
15 37.5599838395 78.1949389097
16 26.2172312215 84.1777241533
17 58.4998814585 1.0256295178
18 68.5958709226 2.8202842567
19 62.4877130037 13.5566018148
20 59.2275718868 12.4058511547
EOF
